(set-logic QF_SLIA)
(declare-fun var0 () String)
(assert (not (str.in_re var0 (re.++ ((_ re.loop 2 900) (re.++ (re.union (str.to_re "K") (re.union (str.to_re "&n") (re.union (str.to_re "0{") (str.to_re "xV")))) (re.++ (re.union (str.to_re "O9") (re.union (str.to_re "x$") (re.union (str.to_re "B") (str.to_re "/?")))) (re.++ (re.union (str.to_re "}f") (re.union (str.to_re "zv") (re.union (str.to_re "y") (str.to_re "*")))) (re.union (str.to_re "]s0") (re.union (str.to_re "Lu") (re.union (str.to_re "~") (str.to_re "}u6")))))))) (re.++ ((_ re.loop 16 622) (re.++ (re.union (str.to_re "-w") (re.union (str.to_re ")") (re.union (str.to_re "BW5") (str.to_re "p")))) (re.++ (re.union (str.to_re "zr") (re.union (str.to_re "z)") (re.union (str.to_re "Xs|") (str.to_re "g[e")))) (re.++ (re.union (str.to_re "x") (re.union (str.to_re "3") (re.union (str.to_re "i") (str.to_re "\u0022T\u0022")))) (re.union (str.to_re ",") (re.union (str.to_re "$") (re.union (str.to_re "Z") (str.to_re "y")))))))) (re.++ ((_ re.loop 11 141) (re.++ (re.union (str.to_re "rA$") (re.union (str.to_re "C@@") (re.union (str.to_re "4") (str.to_re "Iq*")))) (re.++ (re.union (str.to_re "OH") (re.union (str.to_re "d69") (re.union (str.to_re "m") (str.to_re ";Q")))) (re.++ (re.union (str.to_re "E") (re.union (str.to_re "!t") (re.union (str.to_re "{") (str.to_re "tY")))) (re.union (str.to_re "Z") (re.union (str.to_re "s") (re.union (str.to_re "FMg") (str.to_re ";=w")))))))) ((_ re.loop 4 576) (re.++ (re.union (str.to_re "-5$") (re.union (str.to_re "\u0022;") (re.union (str.to_re "@d") (str.to_re "l")))) (re.++ (re.union (str.to_re "K") (re.union (str.to_re "v") (re.union (str.to_re "zw") (str.to_re "Wk")))) (re.++ (re.union (str.to_re "G") (re.union (str.to_re "h") (re.union (str.to_re "8E") (str.to_re "\\}")))) (re.union (str.to_re "^x") (re.union (str.to_re "k") (re.union (str.to_re "F.#") (str.to_re "R%"))))))))))))))
(assert (not (str.in_re var0 (re.++ ((_ re.loop 19 391) (re.++ (re.union (str.to_re "!e") (re.union (str.to_re "y{") (re.union (str.to_re "=:3") (str.to_re "$>")))) (re.++ (re.union (str.to_re "gE") (re.union (str.to_re "@jl") (re.union (str.to_re "qmY") (str.to_re "~")))) (re.++ (re.union (str.to_re "H4") (re.union (str.to_re "%/\\") (re.union (str.to_re "&#M") (str.to_re "H")))) (re.union (str.to_re "a") (re.union (str.to_re "8") (re.union (str.to_re "I'") (str.to_re "1qu")))))))) (re.++ ((_ re.loop 0 292) (re.++ (re.union (str.to_re "G") (re.union (str.to_re "!5") (re.union (str.to_re "f") (str.to_re "rp")))) (re.++ (re.union (str.to_re "*\u0022#") (re.union (str.to_re "iWL") (re.union (str.to_re ">-") (str.to_re ":")))) (re.++ (re.union (str.to_re "C9") (re.union (str.to_re ">iH") (re.union (str.to_re "Q") (str.to_re "#`")))) (re.union (str.to_re "*+") (re.union (str.to_re "y|?") (re.union (str.to_re "8") (str.to_re "ZY")))))))) (re.++ ((_ re.loop 5 651) (re.++ (re.union (str.to_re "Cy)") (re.union (str.to_re "%") (re.union (str.to_re "lY>") (str.to_re "qd=")))) (re.++ (re.union (str.to_re "#\\7") (re.union (str.to_re "P") (re.union (str.to_re "7") (str.to_re "HH")))) (re.++ (re.union (str.to_re ":&4") (re.union (str.to_re "<") (re.union (str.to_re "%VC") (str.to_re "!SB")))) (re.union (str.to_re "'") (re.union (str.to_re "|") (re.union (str.to_re "V") (str.to_re ".o")))))))) ((_ re.loop 18 377) (re.++ (re.union (str.to_re "n1:") (re.union (str.to_re "D[n") (re.union (str.to_re "<") (str.to_re ")TB")))) (re.++ (re.union (str.to_re "D") (re.union (str.to_re "`~") (re.union (str.to_re "@`7") (str.to_re "k")))) (re.++ (re.union (str.to_re "d") (re.union (str.to_re "#") (re.union (str.to_re "uJ<") (str.to_re "tw")))) (re.union (str.to_re "FD") (re.union (str.to_re "TV") (re.union (str.to_re "M!") (str.to_re "g"))))))))))))))
(assert (not (str.in_re var0 (re.++ (re.* re.allchar) (re.++ (re.union (str.to_re "<") (re.union (str.to_re ">") (re.union (str.to_re "'") (re.union (str.to_re "\u0022") (str.to_re "&"))))) (re.* re.allchar))))))
(assert (<= 50 (str.len var0)))
(check-sat)
(get-model)
